
Gurobi 11.0.3 (linux64) logging started Sun Nov 24 22:23:07 2024

Set parameter LogFile to value "/home/yihong/Coding/OR_SUC/SUC_results_bigM100000_thread4/case24_ieee_rts_theta0.1_epsilon0.05_gurobi_seed1440000_num_gen100_N_WDR100_load_scaling_factor1_proposed_T28quadra_cost.txt"
Set parameter TimeLimit to value 3600
Gurobi Optimizer version 11.0.3 build v11.0.3rc0 (linux64 - "Ubuntu 20.04.6 LTS")

CPU model: AMD EPYC 7532 32-Core Processor, instruction set [SSE2|AVX|AVX2]
Thread count: 64 physical cores, 128 logical processors, using up to 4 threads

Optimize a model with 67234 rows, 34821 columns and 1535514 nonzeros
Model fingerprint: 0x90bda96e
Model has 2800 quadratic constraints
Variable types: 32021 continuous, 2800 integer (2800 binary)
Coefficient statistics:
  Matrix range     [3e-04, 3e+03]
  QMatrix range    [2e-03, 8e-03]
  QLMatrix range   [4e-01, 6e+01]
  Objective range  [1e+00, 1e+00]
  Bounds range     [1e+00, 1e+00]
  RHS range        [1e+00, 9e+03]
Presolve removed 54920 rows and 14740 columns
Presolve time: 0.55s
Presolved: 12314 rows, 20081 columns, 68861 nonzeros
Presolved model has 2800 quadratic constraint(s)
Variable types: 17281 continuous, 2800 integer (2800 binary)

Root relaxation: objective 3.969027e+04, 9826 iterations, 0.34 seconds (0.46 work units)

    Nodes    |    Current Node    |     Objective Bounds      |     Work
 Expl Unexpl |  Obj  Depth IntInf | Incumbent    BestBd   Gap | It/Node Time

     0     0 39690.2735    0   28          - 39690.2735      -     -    1s
     0     0 349916.359    0  821          - 349916.359      -     -    1s
     0     0 414789.767    0  810          - 414789.767      -     -    2s
     0     0 722045.418    0  804          - 722045.418      -     -    2s
     0     0 722127.938    0  533          - 722127.938      -     -    2s
     0     0 722417.464    0  393          - 722417.464      -     -    2s
     0     0 722417.684    0  393          - 722417.684      -     -    2s
     0     0 722418.888    0  393          - 722418.888      -     -    2s
     0     0 722423.596    0  393          - 722423.596      -     -    3s
     0     2 722424.459    0  393          - 722424.459      -     -    3s
    85   170 722494.266   19  353          - 722429.255      -  62.7    5s
H  433   640                    722847.80108 722431.178  0.06%  26.8    7s
*  433   640             155    722847.80108 722431.178  0.06%  27.3    7s

Cutting planes:
  Gomory: 5
  Implied bound: 399
  MIR: 153
  Flow cover: 171

Explored 682 nodes (45867 simplex iterations) in 7.95 seconds (9.58 work units)
Thread count was 4 (of 128 available processors)

Solution count 1: 722848 

Optimal solution found (tolerance 1.00e-03)
Warning: max constraint violation (2.5054e-07) exceeds tolerance
Best objective 7.228478010849e+05, best bound 7.224311775372e+05, gap 0.0576%
